Version identifier: 22.1.0.0 | 2022-03-09 | 1a383f8ce
CPXPARAM_Read_DataCheck                          1
CPXPARAM_Threads                                 1
CPXPARAM_MIP_Cuts_Cliques                        -1
CPXPARAM_MIP_Cuts_Covers                         -1
CPXPARAM_MIP_Cuts_FlowCovers                     -1
CPXPARAM_MIP_Cuts_Implied                        -1
CPXPARAM_MIP_Cuts_PathCut                        -1
CPXPARAM_MIP_Cuts_MIRCut                         -1
CPXPARAM_MIP_Cuts_ZeroHalfCut                    -1
CPXPARAM_MIP_Cuts_LiftProj                       -1
CPXPARAM_MIP_Strategy_HeuristicFreq              -1
Tried aggregator 1 time.
MIP Presolve eliminated 1 rows and 0 columns.
MIP Presolve modified 2 coefficients.
Reduced MIP has 9 rows, 28 columns, and 247 nonzeros.
Reduced MIP has 28 binaries, 0 generals, 0 SOSs, and 0 indicators.
Presolve time = 0.00 sec. (0.09 ticks)
Probing time = 0.00 sec. (0.01 ticks)
Tried aggregator 1 time.
Detecting symmetries...
Reduced MIP has 9 rows, 28 columns, and 247 nonzeros.
Reduced MIP has 28 binaries, 0 generals, 0 SOSs, and 0 indicators.
Presolve time = 0.00 sec. (0.11 ticks)
Probing time = 0.00 sec. (0.01 ticks)
MIP emphasis: balance optimality and feasibility.
MIP search method: dynamic search.
Parallel mode: none, using 1 thread.
Root relaxation solution time = 0.00 sec. (0.04 ticks)

        Nodes                                         Cuts/
   Node  Left     Objective  IInf  Best Integer    Best Bound    ItCnt     Gap

      0     0    12462.1042     2                  12462.1042        3         
      0     0    12459.3333     2                    Fract: 1        5         
Detecting symmetries...
      0     2    12459.3333     2                  12457.7391        5         
Elapsed time = 0.02 sec. (0.46 ticks, tree = 0.01 MB, solutions = 0)
*    14    14      integral     0    11510.0000    12445.5263       32    8.13%
*    23     5      integral     0    12390.0000    12445.5263       42    0.45%
*    26     3      integral     0    12400.0000    12429.8889       46    0.24%

Gomory fractional cuts applied:  1

Root node processing (before b&c):
  Real time             =    0.02 sec. (0.47 ticks)
Sequential b&c:
  Real time             =    0.00 sec. (0.28 ticks)
                          ------------
Total (root+branch&cut) =    0.02 sec. (0.74 ticks)
